c FILE: i080-002

c SOURCE: From steinlib

c DESCRIPTION: Steinlib instance with 80 nodes and 120 edges.

p edge 80 120
e 1 20
e 1 46
e 1 56
e 1 58
e 2 24
e 2 46
e 2 65
e 2 79
e 3 33
e 3 55
e 3 61
e 4 44
e 4 55
e 4 65
e 5 55
e 6 20
e 7 49
e 8 43
e 8 58
e 8 75
e 9 13
e 9 41
e 9 52
e 9 79
e 10 44
e 11 34
e 12 20
e 14 17
e 14 46
e 15 57
e 15 75
e 16 44
e 17 40
e 17 44
e 18 34
e 18 66
e 19 74
e 20 25
e 20 36
e 20 48
e 20 59
e 20 74
e 20 79
e 21 28
e 21 39
e 21 58
e 21 59
e 21 60
e 22 27
e 22 30
e 22 71
e 23 52
e 23 56
e 23 60
e 24 63
e 25 52
e 25 53
e 25 69
e 26 45
e 26 75
e 27 56
e 28 32
e 28 36
e 28 47
e 28 63
e 29 31
e 29 33
e 29 34
e 29 41
e 29 55
e 29 59
e 29 70
e 30 46
e 30 67
e 31 36
e 32 33
e 32 77
e 33 34
e 34 79
e 35 38
e 36 74
e 37 38
e 37 39
e 37 76
e 37 77
e 38 75
e 40 63
e 40 80
e 41 46
e 41 72
e 42 80
e 43 50
e 43 71
e 44 55
e 44 62
e 45 54
e 45 59
e 45 62
e 45 70
e 45 75
e 45 77
e 46 68
e 47 76
e 48 63
e 49 57
e 51 57
e 51 74
e 54 79
e 55 73
e 57 70
e 58 64
e 58 73
e 60 69
e 60 70
e 60 76
e 61 62
e 64 79
e 66 72
e 70 71
e 77 78
